language ESSENCE' 1.0
letting initGrid be [
    [1, 1, 1, 1, 1, 1, 1],
[2, 2, 3, 4, 2, 5, 3],
[5, 1, 2, 5, 6, 3, 6],
[4, 4, 4, 5, 1, 4, 2],
[2, 1, 3, 5, 3, 1, 4],
[3, 3, 6, 5, 3, 1, 4],
[4, 6, 6, 1, 1, 4, 1]
    ]
letting goalBlocksRemaining be 5
letting noSteps be 43
